language Essence 1.3

letting pos be
        function((1, 1) --> 1, (1, 2) --> 3, (2, 1) --> 9, (2, 2) --> 12, (3, 1) --> 2, (3, 2) --> 6, (4, 1) --> 10,
                 (4, 2) --> 15, (5, 1) --> 8, (5, 2) --> 14, (6, 1) --> 4, (6, 2) --> 11, (7, 1) --> 5, (7, 2) --> 13,
                 (8, 1) --> 7, (8, 2) --> 16)
letting seq be sequence(1, 3, 1, 6, 7, 3, 8, 5, 2, 4, 6, 2, 7, 5, 4, 8)
